c ---- [ banner ] ------------------------------------------------------------
c
c Kissat SAT Solver
c 
c Copyright (c) 2021-2024 Armin Biere University of Freiburg
c Copyright (c) 2019-2021 Armin Biere Johannes Kepler University Linz
c 
c Version 4.0.1 43f02cf3e992cb44653b35e5cb26f93281552ae0
c gcc (Ubuntu 13.2.0-23ubuntu4) 13.2.0 -W -Wall -O3 -DNDEBUG
c Thu Sep 12 12:27:46 CEST 2024 Linux abryzen9 6.8.0-41-generic x86_64
c
c ---- [ parsing ] -----------------------------------------------------------
c
c opened and reading DIMACS file:
c
c   /data/artifact/AMulet2.0_artifact/exp4/cnf_dc2_64/64_64_U2_DT_HCA_Multgen_dc2.cnf
c
c parsed 'p cnf 33992 152492' header
c closing input after reading 3092039 bytes (3 MB)
c finished parsing after 0.03 seconds
c
c ---- [ options ] -----------------------------------------------------------
c
c --stable=0                       (different from default '1')
c
c ---- [ solving ] -----------------------------------------------------------
c
c  seconds switched rate     size/glue tier1  binary          remaining
c         MB reductions conflicts size  tier2    irredundant
c          level restarts redundant glue  trail          variables
c
c *  0.03 13 0 0 0  0 0   0   0 0.0 0 0 0 0 0% 2456 150034 33989 100%
c (  0.05 15 0 0 0  0 0   0   0 0.0 0 0 0 0 0% 2456 150034 33989 100%
c .  0.05 15 0 0 0  0 0   0   0 0.0 0 0 0 0 0% 2452 150034 33989 100%
c c  0.14 25 0 0 0  0 0   0   0 0.0 0 0 0 0 0% 15931 123086 27250 80%
c d  0.14 25 0 0 0  0 0   0   0 0.0 0 0 0 0 0% 2451 123086 27250 80%
c =  0.19 25 0 0 0  0 0   0   0 0.0 0 0 0 0 0% 3119 123086 26913 79%
c d  0.19 25 0 0 0  0 0   0   0 0.0 0 0 0 0 0% 2445 123086 26913 79%
c f  0.30 23 0 0 0  0 0   0   0 0.0 0 0 0 0 0% 8822 113451 30120 89%
c e  0.46 28 0 0 0  0 0   0   0 0.0 0 0 0 0 0% 1533 123190 20249 60%
c )  0.46 28 0 0 0  0 0   0   0 0.0 0 0 0 0 0% 1533 123190 20249 60%
c {  0.48 28 0 0 0  0 0   0   0 0.0 0 0 2 6 0% 1533 123190 20249 60%
c -  0.63 28 159 0 1 180 28 1001 837 3.1 17 6 3 11 20% 1536 123190 20249 60%
c -  0.67 28 312 0 2 214 28 2001 1570 2.7 13 5 2 8 16% 1579 123190 20249 60%
c c  0.77 28 294 0 2 253 30 2505 1997 2.8 13 4 2 8 17% 2298 120350 19893 59%
c d  0.78 28 294 0 2 253 30 2505 1991 2.8 13 4 2 8 17% 1587 120350 19893 59%
c u  0.79 28 294 0 2 253 30 2505 1788 2.8 13 4 2 8 17% 1588 120350 19893 59%
c v  0.80 28 294 0 2 253 30 2505 1467 2.8 13 4 2 8 17% 1588 120350 19893 59%
c w  0.81 28 294 0 2 253 30 2505 1467 2.8 13 4 2 8 17% 1588 120350 19893 59%
c x  0.82 28 294 0 2 253 30 2505 1467 2.8 13 4 2 8 17% 1588 120284 19893 59%
c =  0.85 28 294 0 2 253 30 2505 1467 2.8 13 4 2 8 17% 1786 120284 19794 58%
c
c  seconds   switched   rate       size/glue tier1    binary          remaining
c         MB  reductions conflicts       size  tier2     irredundant
c           level restarts    redundant    glue   trail          variables
c
c d  0.86 28 294 0 2 253 30 2505 1466 2.8 13 4 2 8 17% 1588 120284 19794 58%
c f  0.88 28 294 0 2 253 30 2505 1466 2.8 13 4 2 8 17% 1620 120236 19810 58%
c u  0.95 28 294 0 2 253 30 2505 1429 2.8 13 4 2 8 17% 1621 120236 19810 58%
c v  0.97 28 294 0 2 253 30 2505 1365 2.8 13 4 2 8 17% 1621 120236 19810 58%
c w  0.98 28 294 0 2 253 30 2505 1354 2.8 13 4 2 8 17% 1621 120236 19810 58%
c x  1.00 28 294 0 2 253 30 2505 1354 2.8 13 4 2 8 17% 1621 120204 19810 58%
c =  1.05 28 294 0 2 253 30 2505 1354 2.8 13 4 2 8 17% 1813 120204 19714 58%
c d  1.06 28 294 0 2 253 30 2505 1354 2.8 13 4 2 8 17% 1621 120204 19714 58%
c t  1.07 28 294 0 2 253 30 2505 1354 2.8 13 4 2 8 17% 1581 120204 19714 58%
c f  1.09 28 294 0 2 253 30 2505 1354 2.8 13 4 2 8 17% 1587 120194 19717 58%
c -  1.30 28 294 0 3 381 35 3415 1918 3.1 14 5 2 8 19% 1612 120194 19717 58%
c -  1.90 28 283 0 4 808 48 5149 3068 3.8 23 6 2 8 23% 1660 120194 19717 58%
c -  2.32 28 250 0 5 996 41 7151 4338 3.6 23 6 2 9 23% 1675 120194 19717 58%
c d  2.41 28 242 0 5 1030 40 7712 4855 3.6 22 6 2 9 24% 1643 120194 19698 58%
c u  2.43 28 242 0 5 1030 40 7712 4577 3.6 22 6 2 9 24% 1647 120194 19698 58%
c v  2.46 28 242 0 5 1030 40 7712 3807 3.6 22 6 2 9 24% 1648 120194 19698 58%
c w  2.48 28 242 0 5 1030 40 7712 3799 3.6 22 6 2 9 24% 1648 120194 19698 58%
c =  2.60 28 242 0 5 1030 40 7712 3799 3.6 22 6 2 9 24% 2294 120194 19375 57%
c d  2.61 28 242 0 5 1030 40 7712 3766 3.6 22 6 2 9 24% 1636 120194 19375 57%
c t  2.62 28 242 0 5 1030 40 7712 3766 3.6 22 6 2 9 24% 1632 120194 19375 57%
c
c  seconds   switched    rate       size/glue tier1    binary          remaining
c         MB  reductions  conflicts       size  tier2     irredundant
c           level  restarts    redundant    glue   trail          variables
c
c f  2.65 28 242 0 5 1030 40 7712 3766 3.6 22 6 2 9 24% 1668 120140 19393 57%
c u  2.73 28 242 0 5 1030 40 7712 3713 3.6 22 6 2 9 24% 1668 120140 19393 57%
c v  2.75 28 242 0 5 1030 40 7712 3585 3.6 22 6 2 9 24% 1668 120140 19393 57%
c w  2.78 28 242 0 5 1030 40 7712 3569 3.6 22 6 2 9 24% 1668 120140 19393 57%
c x  2.85 28 242 0 5 1030 40 7712 3569 3.6 22 6 2 9 24% 1670 118374 19393 57%
c =  2.98 28 242 0 5 1030 40 7712 3569 3.6 22 6 2 9 24% 1848 118374 19304 57%
c d  2.98 28 242 0 5 1030 40 7712 3567 3.6 22 6 2 9 24% 1669 118374 19304 57%
c t  2.99 28 242 0 5 1030 40 7712 3567 3.6 22 6 2 9 24% 1651 118374 19304 57%
c f  3.02 28 242 0 5 1030 40 7712 3567 3.6 22 6 2 9 24% 1729 118257 19343 57%
c -  3.28 28 251 0 6 1157 37 9388 4585 3.5 22 6 2 8 23% 1748 118257 19343 57%
c o  3.39 28 243 0 6 1223 36 10069 5187 3.5 22 6 2 8 23% 1756 118257 19343 57%
c -  3.71 28 240 0 7 1361 36 11838 6074 3.7 23 6 2 8 24% 1797 118257 19343 57%
c s  3.76 28 233 0 7 1374 34 12520 6661 3.6 22 6 2 8 23% 1809 114710 19343 57%
c e  3.84 28 233 0 7 1374 34 12520 6661 3.6 22 6 2 8 23% 1394 114969 19054 56%
c s  3.84 28 233 0 7 1374 34 12520 6661 3.6 22 6 2 8 23% 1394 114776 19054 56%
c e  3.85 28 233 0 7 1374 34 12520 6661 3.6 22 6 2 8 23% 1393 114777 19053 56%
c ^  3.85 28 233 0 7 1374 34 12520 6661 3.6 22 6 2 8 23% 1393 114777 19053 56%
c -  4.32 28 227 0 8 1558 34 14485 7306 3.5 25 7 2 8 24% 1415 114777 19053 56%
c d  4.91 28 233 0 8 1745 35 15797 8422 3.6 28 8 2 8 24% 1419 114777 19032 56%
c u  4.96 28 233 0 8 1745 35 15797 7748 3.6 28 8 2 8 24% 1425 114777 19032 56%
c
c  seconds   switched    rate        size/glue tier1    binary          remaining
c         MB  reductions   conflicts       size  tier2     irredundant
c           level  restarts     redundant    glue   trail          variables
c
c v  5.03 28 233 0 8 1745 35 15797 6630 3.6 28 8 2 8 24% 1427 114777 19032 56%
c w  5.09 28 233 0 8 1745 35 15797 6630 3.6 28 8 2 8 24% 1427 114777 19032 56%
c x  5.14 28 233 0 8 1745 35 15797 6630 3.6 28 8 2 8 24% 1439 114316 19032 56%
c =  5.37 28 233 0 8 1745 35 15797 6630 3.6 28 8 2 8 24% 3533 114316 17985 53%
c d  5.38 28 233 0 8 1745 35 15797 6545 3.6 28 8 2 8 24% 1378 114316 17985 53%
c t  5.40 28 233 0 8 1745 35 15797 6545 3.6 28 8 2 8 24% 1353 114316 17985 53%
c f  5.46 28 233 0 8 1745 35 15797 6545 3.6 28 8 2 8 24% 1361 114296 17991 53%
c u  5.51 28 233 0 8 1745 35 15797 6373 3.6 28 8 2 8 24% 1362 114296 17991 53%
c v  5.55 28 233 0 8 1745 35 15797 6167 3.6 28 8 2 8 24% 1362 114296 17991 53%
c w  5.67 28 233 0 8 1745 35 15797 6167 3.6 28 8 2 8 24% 1362 114296 17991 53%
c x  5.70 28 233 0 8 1745 35 15797 6167 3.6 28 8 2 8 24% 1362 111998 17991 53%
c =  5.94 28 233 0 8 1745 35 15797 6167 3.6 28 8 2 8 24% 4650 111998 16347 48%
c d  5.95 28 233 0 8 1745 35 15797 6089 3.6 28 8 2 8 24% 1293 111998 16347 48%
c -  6.41 28 232 0 9 1836 34 17313 6701 3.6 27 8 2 7 25% 1305 111998 16347 48%
c o  6.68 28 242 0 9 1904 32 20090 9029 3.5 25 7 2 7 23% 1360 111998 16347 48%
c -  6.75 28 243 0 10 1928 32 20315 8442 3.5 25 7 2 7 24% 1360 111998 16347 48%
c -  7.69 28 239 0 11 2221 32 23478 10143 3.5 26 7 2 7 24% 1375 111998 16347 48%
c s  8.09 28 237 0 11 2344 31 25030 11541 3.5 26 7 2 7 25% 1391 96896 16347 48%
c e  8.19 28 237 0 11 2344 31 25030 11541 3.5 26 7 2 7 25% 1136 97163 16168 48%
c 2  8.19 28 237 0 11 2344 31 25030 11541 3.5 26 7 2 7 25% 1135 97163 16168 48%
c
c  seconds   switched     rate         size/glue tier1    binary         remaining
c         MB   reductions   conflicts        size  tier2     irredundant
c           level   restarts      redundant    glue   trail         variables
c
c s  8.19 28 237 0 11 2344 31 25030 11541 3.5 26 7 2 7 25% 1164 96984 16168 48%
c e  8.20 28 237 0 11 2344 31 25030 11541 3.5 26 7 2 7 25% 1161 96989 16166 48%
c ^  8.20 28 237 0 11 2344 31 25030 11541 3.5 26 7 2 7 25% 1161 96989 16166 48%
c -  8.64 28 236 0 12 2480 31 26797 11337 3.5 26 7 2 7 25% 1189 96989 16166 48%
c c  8.72 28 235 0 12 2482 31 26929 11461 3.5 26 7 2 7 25% 1260 96604 16116 47%
c d  8.73 28 235 0 12 2482 31 26929 11370 3.5 26 7 2 7 25% 1160 96604 16116 47%
c u  8.78 28 235 0 12 2482 31 26929 10378 3.5 26 7 2 7 25% 1167 96604 16116 47%
c v  8.85 28 235 0 12 2482 31 26929 9244 3.5 26 7 2 7 25% 1167 96604 16116 47%
c w  8.86 28 235 0 12 2482 31 26929 9242 3.5 26 7 2 7 25% 1167 96604 16116 47%
c x  8.90 28 235 0 12 2482 31 26929 9242 3.5 26 7 2 7 25% 1167 96511 16116 47%
c =  9.14 28 235 0 12 2482 31 26929 9242 3.5 26 7 2 7 25% 3993 96511 14703 43%
c d  9.15 28 235 0 12 2482 31 26929 9083 3.5 26 7 2 7 25% 1123 96511 14703 43%
c t  9.17 28 235 0 12 2482 31 26929 9083 3.5 26 7 2 7 25% 1111 96511 14703 43%
c f  9.23 28 235 0 12 2482 31 26929 9083 3.5 26 7 2 7 25% 1133 96455 14714 43%
c u  9.29 28 235 0 12 2482 31 26929 8813 3.5 26 7 2 7 25% 1137 96455 14714 43%
c v  9.33 28 235 0 12 2482 31 26929 8553 3.5 26 7 2 7 25% 1137 96455 14714 43%
c w  9.34 28 235 0 12 2482 31 26929 8552 3.5 26 7 2 7 25% 1137 96455 14714 43%
c =  9.56 28 235 0 12 2482 31 26929 8552 3.5 26 7 2 7 25% 1173 96455 14696 43%
c d  9.57 28 235 0 12 2482 31 26929 8551 3.5 26 7 2 7 25% 1133 96455 14696 43%
c t  9.58 28 235 0 12 2482 31 26929 8551 3.5 26 7 2 7 25% 1129 96455 14696 43%
c
c  seconds   switched     rate        size/glue tier1    binary         remaining
c         MB   reductions   conflicts       size  tier2     irredundant
c           level   restarts     redundant    glue   trail         variables
c
c f  9.59 28 235 0 12 2482 31 26929 8551 3.5 26 7 2 7 25% 1131 96450 14697 43%
c - 10.39 27 230 0 13 2753 30 30261 10462 3.4 26 8 2 6 25% 1159 96450 14697 43%
c - 10.86 27 230 0 14 2911 28 33867 12377 3.3 25 8 2 6 25% 1204 96450 14697 43%
c - 11.66 27 230 0 15 3172 28 37608 13977 3.3 25 8 2 6 26% 1250 96450 14697 43%
c o 12.13 27 227 0 15 3333 28 40130 16073 3.3 25 8 2 6 26% 1296 96450 14697 43%
c c 12.58 27 226 0 15 3457 28 41256 17137 3.3 26 8 2 6 26% 1373 95970 14618 43%
c d 12.58 27 226 0 15 3457 28 41256 16934 3.3 26 8 2 6 26% 1210 95970 14615 43%
c u 12.66 27 226 0 15 3457 28 41256 15269 3.3 26 8 2 6 26% 1225 95970 14615 43%
c v 12.73 27 226 0 15 3457 28 41256 14454 3.3 26 8 2 6 26% 1226 95970 14615 43%
c w 12.78 27 226 0 15 3457 28 41256 14454 3.3 26 8 2 6 26% 1226 95970 14615 43%
c x 12.82 27 226 0 15 3457 28 41256 14454 3.3 26 8 2 6 26% 1226 95969 14615 43%
c d 13.09 27 226 0 15 3457 28 41256 14434 3.3 26 8 2 6 26% 1210 95969 14607 43%
c t 13.10 27 226 0 15 3457 28 41256 14434 3.3 26 8 2 6 26% 1208 95969 14607 43%
c f 13.12 27 226 0 15 3457 28 41256 14434 3.3 26 8 2 6 26% 1212 95959 14609 43%
c c 13.18 27 226 0 15 3457 28 41256 14413 3.3 26 8 2 6 26% 1230 95859 14598 43%
c d 13.19 27 226 0 15 3457 28 41256 14413 3.3 26 8 2 6 26% 1208 95859 14598 43%
c u 13.26 27 226 0 15 3457 28 41256 14130 3.3 26 8 2 6 26% 1211 95859 14598 43%
c v 13.32 27 226 0 15 3457 28 41256 13265 3.3 26 8 2 6 26% 1213 95859 14598 43%
c w 13.46 27 226 0 15 3457 28 41256 13248 3.3 26 8 2 6 26% 1213 95859 14598 43%
c d 13.47 27 226 0 15 3457 28 41256 13248 3.3 26 8 2 6 26% 1211 95859 14597 43%
c
c  seconds   switched     rate         size/glue tier1    binary         remaining
c         MB   reductions   conflicts        size  tier2     irredundant
c           level   restarts      redundant    glue   trail         variables
c
c t 13.48 27 226 0 15 3457 28 41256 13248 3.3 26 8 2 6 26% 1209 95859 14597 43%
c - 13.55 27 226 0 16 3478 28 41480 12086 3.3 26 8 2 6 26% 1213 95859 14597 43%
c - 14.41 27 226 0 17 3736 27 45482 14163 3.3 25 8 2 6 26% 1252 95859 14597 43%
c - 15.22 27 226 0 18 4014 27 49607 16203 3.3 25 8 2 6 26% 1306 95859 14597 43%
c s 15.54 27 226 0 18 4102 26 52131 18327 3.3 25 8 2 6 26% 1344 86356 14597 43%
c e 15.63 27 226 0 18 4102 26 52131 18327 3.3 25 8 2 6 26% 1201 86645 14439 42%
c 2 15.63 27 226 0 18 4102 26 52131 18327 3.3 25 8 2 6 26% 1200 86645 14439 42%
c s 15.63 27 226 0 18 4102 26 52131 18327 3.3 25 8 2 6 26% 1201 86457 14439 42%
c ^ 15.64 27 226 0 18 4102 26 52131 18327 3.3 25 8 2 6 26% 1201 86457 14439 42%
c - 15.95 27 228 0 19 4233 26 53850 17314 3.3 25 8 2 6 26% 1215 86457 14439 42%
c - 16.49 27 221 0 20 4401 25 58208 18887 3.2 24 7 2 6 25% 1288 86457 14439 42%
c d 16.61 27 221 0 20 4460 25 58883 19302 3.2 24 7 2 6 25% 1206 86457 14393 42%
c u 16.71 27 221 0 20 4460 25 58883 17110 3.2 24 7 2 6 25% 1250 86457 14393 42%
c v 16.80 27 221 0 20 4460 25 58883 15507 3.2 24 7 2 6 25% 1255 86457 14393 42%
c w 16.85 27 221 0 20 4460 25 58883 15463 3.2 24 7 2 6 25% 1255 86457 14393 42%
c = 17.12 27 221 0 20 4460 25 58883 15463 3.2 24 7 2 6 25% 1523 86457 14259 42%
c d 17.13 27 221 0 20 4460 25 58883 15126 3.2 24 7 2 6 25% 1182 86457 14254 42%
c t 17.14 27 221 0 20 4460 25 58883 15126 3.2 24 7 2 6 25% 1174 86457 14254 42%
c c 17.23 27 221 0 20 4460 25 58883 15126 3.2 24 7 2 6 25% 1223 86205 14224 42%
c d 17.24 27 221 0 20 4460 25 58883 15103 3.2 24 7 2 6 25% 1163 86205 14224 42%
c
c  seconds   switched     rate         size/glue tier1    binary         remaining
c         MB   reductions   conflicts        size  tier2     irredundant
c           level   restarts      redundant    glue   trail         variables
c
c u 17.32 27 221 0 20 4460 25 58883 14635 3.2 24 7 2 6 25% 1172 86205 14224 42%
c v 17.37 27 221 0 20 4460 25 58883 14298 3.2 24 7 2 6 25% 1172 86205 14224 42%
c w 17.41 27 221 0 20 4460 25 58883 14271 3.2 24 7 2 6 25% 1172 86205 14224 42%
c x 17.46 27 221 0 20 4460 25 58883 14271 3.2 24 7 2 6 25% 1172 86054 14224 42%
c = 17.70 27 221 0 20 4460 25 58883 14271 3.2 24 7 2 6 25% 1224 86054 14198 42%
c d 17.71 27 221 0 20 4460 25 58883 14240 3.2 24 7 2 6 25% 1158 86054 14196 42%
c - 17.98 27 216 0 21 4603 25 62680 16078 3.2 23 7 2 6 24% 1209 86054 14196 42%
c - 18.50 27 213 0 22 4912 24 67262 18522 3.1 23 7 2 6 25% 1236 86054 14196 42%
c o 18.86 27 212 0 22 5126 24 70134 21099 3.1 23 7 2 6 25% 1261 86054 14196 42%
c - 19.14 27 215 0 23 5337 24 71953 20500 3.2 24 7 2 6 25% 1275 86054 14196 42%
c - 19.55 27 212 0 24 5585 24 76749 22165 3.1 23 7 2 5 24% 1343 86054 14196 42%
c c 20.02 27 211 0 24 5853 23 79947 24979 3.1 23 7 2 5 24% 1413 85665 14129 42%
c d 20.02 27 211 0 24 5853 23 79947 24765 3.1 23 7 2 5 24% 1279 85665 14129 42%
c u 20.09 27 211 0 24 5853 23 79947 21803 3.1 23 7 2 5 24% 1308 85665 14129 42%
c v 20.15 27 211 0 24 5853 23 79947 20032 3.1 23 7 2 5 24% 1314 85665 14129 42%
c w 20.20 27 211 0 24 5853 23 79947 20025 3.1 23 7 2 5 24% 1314 85665 14129 42%
c = 20.33 27 211 0 24 5853 23 79947 20025 3.1 23 7 2 5 24% 1512 85665 14030 41%
c d 20.33 27 211 0 24 5853 23 79947 19876 3.1 23 7 2 5 24% 1270 85665 14022 41%
c t 20.34 27 211 0 24 5853 23 79947 19876 3.1 23 7 2 5 24% 1261 85665 14022 41%
c f 20.35 27 211 0 24 5853 23 79947 19876 3.1 23 7 2 5 24% 1274 85615 14027 41%
c
c  seconds   switched     rate         size/glue tier1    binary         remaining
c         MB   reductions   conflicts        size  tier2     irredundant
c           level   restarts      redundant    glue   trail         variables
c
c c 20.39 27 211 0 24 5853 23 79947 19856 3.1 23 7 2 5 24% 1283 85575 14022 41%
c d 20.39 27 211 0 24 5853 23 79947 19856 3.1 23 7 2 5 24% 1273 85575 14022 41%
c u 20.44 27 211 0 24 5853 23 79947 19348 3.1 23 7 2 5 24% 1278 85575 14022 41%
c v 20.47 27 211 0 24 5853 23 79947 18996 3.1 23 7 2 5 24% 1279 85575 14022 41%
c w 20.52 27 211 0 24 5853 23 79947 18990 3.1 23 7 2 5 24% 1279 85575 14022 41%
c x 20.55 27 211 0 24 5853 23 79947 18990 3.1 23 7 2 5 24% 1279 85519 14022 41%
c = 20.79 27 211 0 24 5853 23 79947 18990 3.1 23 7 2 5 24% 1779 85515 13772 41%
c d 20.79 27 211 0 24 5853 23 79947 18771 3.1 23 7 2 5 24% 1242 85515 13772 41%
c t 20.80 27 211 0 24 5853 23 79947 18771 3.1 23 7 2 5 24% 1224 85515 13772 41%
c f 20.82 27 211 0 24 5853 23 79947 18771 3.1 23 7 2 5 24% 1227 85503 13773 41%
c - 21.12 27 209 0 25 6053 23 81647 16281 3.2 24 7 1 5 25% 1237 85503 13773 41%
c - 21.80 27 205 0 26 6515 23 86647 17599 3.2 24 8 1 5 25% 1283 85503 13773 41%
c - 22.31 27 204 0 27 6892 23 91747 18935 3.2 24 8 1 5 25% 1310 85503 13773 41%
c s 22.99 27 200 0 27 7422 23 95806 22578 3.2 24 8 1 5 25% 1352 82240 13773 41%
c e 23.05 27 200 0 27 7422 23 95806 22578 3.2 24 8 1 5 25% 671 83717 13409 39%
c s 23.05 27 200 0 27 7422 23 95806 22578 3.2 24 8 1 5 25% 673 83215 13409 39%
c e 23.07 27 200 0 27 7422 23 95806 22578 3.2 24 8 1 5 25% 667 83319 13358 39%
c ^ 23.07 27 200 0 27 7422 23 95806 22578 3.2 24 8 1 5 25% 667 83319 13358 39%
c - 23.17 27 201 0 28 7522 23 96945 18400 3.2 24 8 1 5 25% 684 83319 13358 39%
c - 23.81 27 201 0 29 8053 24 102236 19902 3.2 24 8 1 5 25% 723 83319 13358 39%
c
c  seconds   switched     rate          size/glue tier1   binary         remaining
c         MB   reductions   conflicts         size  tier2    irredundant
c           level   restarts       redundant    glue   trail        variables
c
c d 24.09 27 199 0 29 8234 23 104564 21941 3.2 24 8 1 5 25% 695 83319 13337 39%
c u 24.13 27 199 0 29 8234 23 104564 20377 3.2 24 8 1 5 25% 711 83319 13337 39%
c v 24.19 27 199 0 29 8234 23 104564 17665 3.2 24 8 1 5 25% 719 83319 13337 39%
c w 24.34 27 199 0 29 8234 23 104564 17328 3.2 24 8 1 5 25% 719 83319 13337 39%
c = 24.65 27 199 0 29 8234 23 104564 17328 3.2 24 8 1 5 25% 869 83319 13262 39%
c d 24.66 27 199 0 29 8234 23 104564 17274 3.2 24 8 1 5 25% 699 83319 13257 39%
c t 24.66 27 199 0 29 8234 23 104564 17274 3.2 24 8 1 5 25% 687 83319 13257 39%
c f 24.69 27 199 0 29 8234 23 104564 17274 3.2 24 8 1 5 25% 689 83307 13258 39%
c c 24.72 27 199 0 29 8234 23 104564 17214 3.2 24 8 1 5 25% 720 83107 13234 39%
c d 24.73 27 199 0 29 8234 23 104564 17214 3.2 24 8 1 5 25% 674 83107 13234 39%
c u 24.76 27 199 0 29 8234 23 104564 16841 3.2 24 8 1 5 25% 681 83107 13234 39%
c v 24.80 27 199 0 29 8234 23 104564 16231 3.2 24 8 1 5 25% 683 83107 13234 39%
c w 24.92 27 199 0 29 8234 23 104564 16069 3.2 24 8 1 5 25% 683 83107 13234 39%
c d 25.23 27 199 0 29 8234 23 104564 16067 3.2 24 8 1 5 25% 679 83107 13232 39%
c t 25.24 27 199 0 29 8234 23 104564 16067 3.2 24 8 1 5 25% 678 83107 13232 39%
c - 25.73 27 196 0 30 8610 24 107622 16441 3.2 25 8 1 5 26% 688 83107 13232 39%
c o 25.98 27 196 0 30 8802 23 110241 18706 3.2 25 8 1 5 26% 718 83107 13232 39%
c - 26.35 27 196 0 31 9107 24 113099 18674 3.2 25 8 1 5 26% 738 83107 13232 39%
c - 27.02 27 195 0 32 9663 23 118669 20468 3.2 25 8 1 5 26% 778 83107 13232 39%
c - 27.80 27 193 0 33 10256 23 124326 22036 3.2 26 8 1 5 26% 821 83107 13232 39%
c
c  seconds   switched      rate          size/glue tier1   binary         remaining
c         MB   reductions    conflicts         size  tier2    irredundant
c           level   restarts        redundant    glue   trail        variables
c
c - 28.62 27 189 0 34 10785 23 130075 23500 3.3 26 8 1 5 27% 855 83107 13232 39%
c c 29.02 27 188 0 34 11049 23 132819 26020 3.3 27 8 1 5 27% 934 82431 13129 39%
c d 29.03 27 188 0 34 11049 23 132819 25645 3.3 27 8 1 5 27% 728 82431 13129 39%
c u 29.07 27 188 0 34 11049 23 132819 23655 3.3 27 8 1 5 27% 747 82431 13129 39%
c v 29.14 27 188 0 34 11049 23 132819 20367 3.3 27 8 1 5 27% 758 82431 13129 39%
c w 29.24 27 188 0 34 11049 23 132819 20360 3.3 27 8 1 5 27% 758 82431 13129 39%
c x 29.31 27 188 0 34 11049 23 132819 20354 3.3 27 8 1 5 27% 770 81147 13129 39%
c d 29.31 27 188 0 34 11049 23 132819 20341 3.3 27 8 1 5 27% 748 81147 13118 39%
c t 29.32 27 188 0 34 11049 23 132819 20341 3.3 27 8 1 5 27% 737 81147 13118 39%
c c 29.36 27 188 0 34 11049 23 132819 20335 3.3 27 8 1 5 27% 741 81131 13116 39%
c d 29.37 27 188 0 34 11049 23 132819 20335 3.3 27 8 1 5 27% 737 81131 13116 39%
c u 29.40 27 188 0 34 11049 23 132819 19821 3.3 27 8 1 5 27% 740 81131 13116 39%
c v 29.45 27 188 0 34 11049 23 132819 19163 3.3 27 8 1 5 27% 742 81131 13116 39%
c w 29.67 27 188 0 34 11049 23 132819 18715 3.3 27 8 1 5 27% 742 81131 13116 39%
c d 30.06 27 188 0 34 11049 23 132819 18715 3.3 27 8 1 5 27% 736 81131 13113 39%
c - 30.28 27 189 0 35 11171 23 135905 18642 3.3 27 8 1 5 27% 747 81131 13113 39%
c - 30.94 27 188 0 36 11605 23 141821 20921 3.3 27 8 1 5 27% 769 81131 13113 39%
c - 31.65 27 186 0 37 12060 22 147822 22923 3.3 27 8 1 5 27% 805 81130 13113 39%
c - 32.30 27 183 0 38 12474 22 153907 24542 3.3 27 8 1 5 27% 830 81130 13113 39%
c s 32.72 27 180 0 38 12782 22 157896 28199 3.2 27 8 1 5 27% 862 80939 13113 39%
c
c  seconds   switched      rate          size/glue tier1   binary         remaining
c         MB   reductions    conflicts         size  tier2    irredundant
c           level   restarts        redundant    glue   trail        variables
c
c e 32.81 27 180 0 38 12782 22 157896 28199 3.2 27 8 1 5 27% 693 91761 11681 34%
c 2 32.81 27 180 0 38 12782 22 157896 28199 3.2 27 8 1 5 27% 692 91761 11681 34%
c s 32.82 27 180 0 38 12782 22 157896 28199 3.2 27 8 1 5 27% 692 89751 11681 34%
c e 32.84 27 180 0 38 12782 22 157896 28199 3.2 27 8 1 5 27% 653 90025 11591 34%
c ^ 32.84 27 180 0 38 12782 22 157896 28199 3.2 27 8 1 5 27% 653 90025 11591 34%
c - 33.17 28 179 0 39 13002 22 160071 19426 3.2 27 8 1 5 27% 668 90016 11591 34%
c o 33.21 28 179 0 39 13015 22 160278 19619 3.2 27 8 1 5 27% 669 90016 11591 34%
c d 33.75 28 176 0 39 13415 22 164814 23703 3.2 27 8 1 5 27% 661 90016 11581 34%
c u 33.79 28 176 0 39 13415 22 164814 21794 3.2 27 8 1 5 27% 674 90016 11581 34%
c v 33.85 28 176 0 39 13415 22 164814 18986 3.2 27 8 1 5 27% 681 90016 11581 34%
c w 33.97 28 176 0 39 13415 22 164814 18961 3.2 27 8 1 5 27% 681 90016 11581 34%
c x 34.04 28 176 0 39 13415 22 164814 18949 3.2 27 8 1 5 27% 713 89752 11581 34%
c d 34.05 28 176 0 39 13415 22 164814 18943 3.2 27 8 1 5 27% 705 89752 11577 34%
c t 34.05 28 176 0 39 13415 22 164814 18943 3.2 27 8 1 5 27% 658 89752 11577 34%
c c 34.16 28 176 0 39 13415 22 164814 18869 3.2 27 8 1 5 27% 697 89562 11555 34%
c d 34.17 28 176 0 39 13415 22 164814 18868 3.2 27 8 1 5 27% 653 89562 11555 34%
c u 34.20 28 176 0 39 13415 22 164814 18483 3.2 27 8 1 5 27% 661 89562 11555 34%
c v 34.24 28 176 0 39 13415 22 164814 17905 3.2 27 8 1 5 27% 661 89562 11555 34%
c w 34.37 28 176 0 39 13415 22 164814 17690 3.2 27 8 1 5 27% 661 89562 11555 34%
c x 34.43 28 176 0 39 13415 22 164814 17690 3.2 27 8 1 5 27% 665 89527 11555 34%
c
c  seconds   switched      rate          size/glue tier1   binary         remaining
c         MB   reductions    conflicts         size  tier2    irredundant
c           level   restarts        redundant    glue   trail        variables
c
c d 34.44 28 176 0 39 13415 22 164814 17687 3.2 27 8 1 5 27% 659 89527 11552 34%
c t 34.44 28 176 0 39 13415 22 164814 17687 3.2 27 8 1 5 27% 654 89527 11552 34%
c - 34.61 28 176 0 40 13516 22 166315 16383 3.2 27 8 1 5 27% 655 89522 11552 34%
c - 35.23 28 174 0 41 13872 21 172640 19101 3.2 27 8 1 5 28% 673 89513 11552 34%
c - 35.76 28 171 0 42 14221 21 179044 21322 3.2 26 8 1 5 27% 702 89507 11552 34%
c - 36.43 28 167 0 43 14690 20 185525 22734 3.1 26 8 1 5 27% 727 89503 11552 34%
c - 37.05 28 162 0 44 15150 20 192083 23825 3.1 26 8 1 5 27% 738 89502 11552 34%
c - 37.56 28 158 0 45 15506 19 198716 24652 3.0 25 8 1 5 27% 752 89498 11552 34%
c c 37.75 28 157 0 45 15607 19 200603 26415 3.0 25 8 1 5 27% 774 89309 11524 34%
c d 37.75 28 157 0 45 15607 19 200603 26311 3.0 25 8 1 5 27% 718 89309 11524 34%
c u 37.79 28 157 0 45 15607 19 200603 24732 3.0 25 8 1 5 27% 737 89309 11524 34%
c v 37.87 28 157 0 45 15607 19 200603 21422 3.0 25 8 1 5 27% 749 89309 11524 34%
c w 37.94 28 157 0 45 15607 19 200603 21015 3.0 25 8 1 5 27% 749 89309 11524 34%
c d 38.34 28 157 0 45 15607 19 200603 21010 3.0 25 8 1 5 27% 745 89309 11522 34%
c t 38.34 28 157 0 45 15607 19 200603 21010 3.0 25 8 1 5 27% 731 89309 11522 34%
c c 38.38 28 157 0 45 15607 19 200603 21010 3.0 25 8 1 5 27% 735 89287 11520 34%
c d 38.38 28 157 0 45 15607 19 200603 21009 3.0 25 8 1 5 27% 731 89287 11520 34%
c u 38.42 28 157 0 45 15607 19 200603 20683 3.0 25 8 1 5 27% 733 89287 11520 34%
c v 38.47 28 157 0 45 15607 19 200603 19977 3.0 25 8 1 5 27% 736 89287 11520 34%
c w 38.53 28 157 0 45 15607 19 200603 19764 3.0 25 8 1 5 27% 736 89287 11520 34%
c
c  seconds   switched      rate          size/glue tier1   binary         remaining
c         MB   reductions    conflicts         size  tier2    irredundant
c           level   restarts        redundant    glue   trail        variables
c
c x 38.61 28 157 0 45 15607 19 200603 19693 3.0 25 8 1 5 27% 745 88241 11520 34%
c t 38.62 28 157 0 45 15607 19 200603 19693 3.0 25 8 1 5 27% 735 88241 11520 34%
c - 38.97 28 154 0 46 15790 19 205425 20019 2.9 25 8 1 5 27% 758 88238 11520 34%
c - 39.14 28 147 0 47 15965 18 212209 21817 2.9 24 8 1 5 26% 799 88238 11520 34%
c - 39.30 28 139 0 48 16077 17 219064 22570 2.9 24 8 1 5 24% 856 88238 11520 34%
c o 39.34 28 137 0 48 16092 16 220587 23912 2.9 23 8 1 5 24% 862 88238 11520 34%
c - 39.49 28 131 0 49 16187 16 225992 23517 2.9 23 8 1 5 23% 882 88238 11520 34%
c i 39.51 28 130 0 49 16201 16 226994 24335 2.8 23 8 1 5 22% 892 88238 11505 34%
c - 39.65 28 124 0 50 16269 15 232995 24049 2.8 22 8 1 5 21% 910 88238 11505 34%
c s 39.84 28 117 0 50 16333 14 240024 30388 2.8 22 8 1 5 20% 912 87999 11505 34%
c e 39.97 28 117 0 50 16333 14 240024 30388 2.8 22 8 1 5 20% 621 99241 10495 31%
c 2 39.97 28 117 0 50 16333 14 240024 30388 2.8 22 8 1 5 20% 615 99241 10495 31%
c s 39.99 28 117 0 50 16333 14 240024 30388 2.8 22 8 1 5 20% 619 96203 10495 31%
c e 40.03 28 117 0 50 16333 14 240024 30388 2.8 22 8 1 5 20% 600 96522 10460 31%
c ! 40.03 28 117 0 50 16333 14 240024 30388 2.8 22 8 1 5 20% 600 96522 10460 31%
c - 40.03 28 117 0 51 16333 14 240067 16208 2.8 22 8 1 5 20% 601 96522 10460 31%
c u 40.07 28 116 0 51 16337 14 240272 15803 2.8 22 8 1 5 20% 601 96522 10460 31%
c v 40.09 28 116 0 51 16337 14 240272 15385 2.8 22 8 1 5 20% 601 96522 10460 31%
c w 40.10 28 116 0 51 16337 14 240272 15352 2.8 22 8 1 5 20% 601 96522 10460 31%
c x 40.14 28 116 0 51 16337 14 240272 15348 2.8 22 8 1 5 20% 602 96376 10460 31%
c
c  seconds   switched      rate          size/glue tier1   binary         remaining
c         MB   reductions    conflicts         size  tier2    irredundant
c           level   restarts        redundant    glue   trail        variables
c
c t 40.15 28 116 0 51 16337 14 240272 15348 2.8 22 8 1 5 20% 599 96376 10460 31%
c f 40.19 28 116 0 51 16337 14 240272 15348 2.8 22 8 1 5 20% 607 96264 10464 31%
c c 40.21 28 116 0 51 16337 14 240272 15347 2.8 22 8 1 5 20% 619 96203 10462 31%
c d 40.22 28 116 0 51 16337 14 240272 15347 2.8 22 8 1 5 20% 615 96203 10462 31%
c u 40.25 28 116 0 51 16337 14 240272 14574 2.8 22 8 1 5 20% 617 96203 10462 31%
c v 40.28 28 116 0 51 16337 14 240272 13898 2.8 22 8 1 5 20% 617 96203 10462 31%
c w 40.30 28 116 0 51 16337 14 240272 13821 2.8 22 8 1 5 20% 617 96203 10462 31%
c t 40.30 28 116 0 51 16337 14 240272 13821 2.8 22 8 1 5 20% 612 96203 10462 31%
c - 40.49 28 110 0 52 16418 13 247208 17401 2.7 21 8 1 5 18% 614 96203 10462 31%
c i 40.51 28 109 0 52 16424 13 248461 18467 2.7 21 8 1 5 18% 618 96202 10461 31%
c - 40.66 28 103 0 53 16501 12 254420 20914 2.7 21 8 1 5 17% 617 96202 10461 31%
c - 40.88 28 98 0 54 16658 12 261700 23282 2.7 20 8 1 5 16% 621 96202 10461 31%
c - 41.10 28 92 0 55 16761 11 269048 24991 2.6 20 8 1 5 15% 629 96200 10461 31%
c i 41.12 28 91 0 55 16761 11 269875 25593 2.6 20 8 1 5 15% 632 96200 10460 31%
c i 41.13 28 91 0 55 16763 11 270117 25768 2.6 20 8 1 5 15% 638 96200 10456 31%
c i 41.15 28 90 0 55 16763 11 270885 26438 2.6 20 8 1 5 15% 645 96200 10455 31%
c i 41.16 28 90 0 55 16763 11 271338 26773 2.6 20 8 1 5 15% 652 96200 10454 31%
c i 41.17 28 89 0 55 16768 11 271850 27147 2.6 19 7 1 5 15% 656 96197 10452 31%
c i 41.18 28 89 0 55 16768 11 272092 27330 2.6 19 7 1 5 15% 660 96196 10451 31%
c i 41.18 28 89 0 55 16768 11 272133 27357 2.6 19 7 1 5 15% 661 96196 10450 31%
c
c  seconds  switched      rate          size/glue tier1   binary         remaining
c         MB  reductions    conflicts         size  tier2    irredundant
c          level   restarts        redundant    glue   trail        variables
c
c i 41.18 28 89 0 55 16768 11 272137 27357 2.6 19 7 1 5 15% 664 96196 10438 31%
c i 41.18 28 89 0 55 16768 11 272167 27367 2.6 19 7 1 5 15% 670 96196 10437 31%
c } 41.18 28 89 0 55 16768 11 272174 27368 2.6 19 7 1 5 15% 673 96196 10425 31%
c 0 41.18 28 89 0 55 16768 11 272174 27368 2.6 19 7 1 5 15% 673 96196 10425 31%
c
c ---- [ result ] ------------------------------------------------------------
c
s UNSATISFIABLE
c
c ---- [ profiling ] ---------------------------------------------------------
c
c          29.72   72.18 %  search
c          29.72   72.18 %  focused
c          10.98   26.67 %  simplify
c          10.45   25.37 %  probe
c           4.36   10.58 %  vivify
c           3.86    9.38 %  sweep
c           0.79    1.92 %  eliminate
c           0.76    1.86 %  congruence
c           0.75    1.83 %  factor
c           0.56    1.37 %  substitute
c           0.42    1.01 %  preprocess
c           0.25    0.60 %  reduce
c           0.15    0.37 %  fastel
c           0.12    0.30 %  subsume
c           0.09    0.21 %  transitive
c           0.05    0.13 %  backbone
c           0.03    0.08 %  lucky
c           0.03    0.07 %  parse
c =============================================
c          41.18  100.00 %  total
c
c ---- [ statistics ] --------------------------------------------------------
c
c chronological:                         7403                3 %  conflicts
c conflicts:                           272174             6609.14 per second
c congruent:                             7519               22 %  variables
c decisions:                          4324778               15.89 per conflict
c eliminated:                           13479               40 %  variables
c factored:                              3314               10 %  variables
c fast_eliminated:                       9871               73 %  eliminated
c fast_strengthened:                       14                0 %  per strengthened
c fast_subsumed:                          142                0 %  per subsumed
c iterations:                              12                0 %  variables
c propagations:                     169562389          4117444    per second
c reductions:                              55             4949    interval
c reordered:                                7            38882    interval
c restarts:                             16768               16    interval
c strengthened:                          8665                0 %  checks
c substituted:                          13343               39 %  variables
c subsumed:                             37918                1 %  checks
c switched:                                 0                0    interval
c vivified:                             75210               12 %  checks
c
c ---- [ glue usage ] --------------------------------------------------------
c
c focused glue 1 used 693868 clauses 60.60% accumulated 60.60% tier1
c focused glue 2 used 199620 clauses 17.43% accumulated 78.03%
c focused glue 3 used  78652 clauses  6.87% accumulated 84.90%
c focused glue 4 used  45250 clauses  3.95% accumulated 88.85%
c focused glue 5 used  30570 clauses  2.67% accumulated 91.52% tier2
c
c ---- [ resources ] ---------------------------------------------------------
c
c maximum-resident-set-size:         29229056 bytes         28 MB
c process-time:                            41s              41.18 seconds
c
c ---- [ shutting down ] -----------------------------------------------------
c
c exit 20
